50 15 50
4 4 4 4 32 32 31 31 31 31 3 3 3 3 31 31 3 3 3 3 3 3 15 15 15 15 15 3 3 3 3 3 15 15 15 15 15 3 3 3 3 3 3 3 3 3 3 3 3 3 
0 0 0.0
0 1 18.0
0 2 38.0
0 3 56.0
0 4 76.0
0 5 94.0
0 6 114.0
0 7 132.0
0 8 152.0
0 9 170.0
0 10 51.0
0 11 69.0
0 12 89.0
0 13 107.0
0 14 127.0
0 15 145.0
0 16 165.0
0 17 183.0
0 18 203.0
0 19 221.0
0 20 103.0
0 21 121.0
0 22 141.0
0 23 159.0
0 24 179.0
0 25 197.0
0 26 217.0
0 27 235.0
0 28 255.0
0 29 273.0
0 30 155.0
0 31 173.0
0 32 193.0
0 33 211.0
0 34 231.0
0 35 249.0
0 36 269.0
0 37 287.0
0 38 307.0
0 39 325.0
0 40 206.0
0 41 224.0
0 42 244.0
0 43 262.0
0 44 282.0
0 45 300.0
0 46 320.0
0 47 338.0
0 48 358.0
0 49 376.0
1 0 18.0
1 1 0.0
1 2 20.0
1 3 38.0
1 4 58.0
1 5 76.0
1 6 96.0
1 7 114.0
1 8 134.0
1 9 152.0
1 10 69.0
1 11 51.0
1 12 71.0
1 13 89.0
1 14 109.0
1 15 127.0
1 16 147.0
1 17 165.0
1 18 185.0
1 19 203.0
1 20 121.0
1 21 103.0
1 22 123.0
1 23 141.0
1 24 161.0
1 25 179.0
1 26 199.0
1 27 217.0
1 28 237.0
1 29 255.0
1 30 173.0
1 31 155.0
1 32 175.0
1 33 193.0
1 34 213.0
1 35 231.0
1 36 251.0
1 37 269.0
1 38 289.0
1 39 307.0
1 40 224.0
1 41 206.0
1 42 226.0
1 43 244.0
1 44 264.0
1 45 282.0
1 46 302.0
1 47 320.0
1 48 340.0
1 49 358.0
2 0 38.0
2 1 20.0
2 2 0.0
2 3 18.0
2 4 38.0
2 5 56.0
2 6 76.0
2 7 94.0
2 8 114.0
2 9 132.0
2 10 89.0
2 11 71.0
2 12 51.0
2 13 69.0
2 14 89.0
2 15 107.0
2 16 127.0
2 17 145.0
2 18 165.0
2 19 183.0
2 20 141.0
2 21 123.0
2 22 103.0
2 23 121.0
2 24 141.0
2 25 159.0
2 26 179.0
2 27 197.0
2 28 217.0
2 29 235.0
2 30 193.0
2 31 175.0
2 32 155.0
2 33 173.0
2 34 193.0
2 35 211.0
2 36 231.0
2 37 249.0
2 38 269.0
2 39 287.0
2 40 244.0
2 41 226.0
2 42 206.0
2 43 224.0
2 44 244.0
2 45 262.0
2 46 282.0
2 47 300.0
2 48 320.0
2 49 338.0
3 0 56.0
3 1 38.0
3 2 18.0
3 3 0.0
3 4 20.0
3 5 38.0
3 6 58.0
3 7 76.0
3 8 96.0
3 9 114.0
3 10 107.0
3 11 89.0
3 12 69.0
3 13 51.0
3 14 71.0
3 15 89.0
3 16 109.0
3 17 127.0
3 18 147.0
3 19 165.0
3 20 159.0
3 21 141.0
3 22 121.0
3 23 103.0
3 24 123.0
3 25 141.0
3 26 161.0
3 27 179.0
3 28 199.0
3 29 217.0
3 30 211.0
3 31 193.0
3 32 173.0
3 33 155.0
3 34 175.0
3 35 193.0
3 36 213.0
3 37 231.0
3 38 251.0
3 39 269.0
3 40 262.0
3 41 244.0
3 42 224.0
3 43 206.0
3 44 226.0
3 45 244.0
3 46 264.0
3 47 282.0
3 48 302.0
3 49 320.0
4 0 76.0
4 1 58.0
4 2 38.0
4 3 20.0
4 4 0.0
4 5 18.0
4 6 38.0
4 7 56.0
4 8 76.0
4 9 94.0
4 10 127.0
4 11 109.0
4 12 89.0
4 13 71.0
4 14 51.0
4 15 69.0
4 16 89.0
4 17 107.0
4 18 127.0
4 19 145.0
4 20 179.0
4 21 161.0
4 22 141.0
4 23 123.0
4 24 103.0
4 25 121.0
4 26 141.0
4 27 159.0
4 28 179.0
4 29 197.0
4 30 231.0
4 31 213.0
4 32 193.0
4 33 175.0
4 34 155.0
4 35 173.0
4 36 193.0
4 37 211.0
4 38 231.0
4 39 249.0
4 40 282.0
4 41 264.0
4 42 244.0
4 43 226.0
4 44 206.0
4 45 224.0
4 46 244.0
4 47 262.0
4 48 282.0
4 49 300.0
5 0 94.0
5 1 76.0
5 2 56.0
5 3 38.0
5 4 18.0
5 5 0.0
5 6 20.0
5 7 38.0
5 8 58.0
5 9 76.0
5 10 145.0
5 11 127.0
5 12 107.0
5 13 89.0
5 14 69.0
5 15 51.0
5 16 71.0
5 17 89.0
5 18 109.0
5 19 127.0
5 20 197.0
5 21 179.0
5 22 159.0
5 23 141.0
5 24 121.0
5 25 103.0
5 26 123.0
5 27 141.0
5 28 161.0
5 29 179.0
5 30 249.0
5 31 231.0
5 32 211.0
5 33 193.0
5 34 173.0
5 35 155.0
5 36 175.0
5 37 193.0
5 38 213.0
5 39 231.0
5 40 300.0
5 41 282.0
5 42 262.0
5 43 244.0
5 44 224.0
5 45 206.0
5 46 226.0
5 47 244.0
5 48 264.0
5 49 282.0
6 0 114.0
6 1 96.0
6 2 76.0
6 3 58.0
6 4 38.0
6 5 20.0
6 6 0.0
6 7 18.0
6 8 38.0
6 9 56.0
6 10 165.0
6 11 147.0
6 12 127.0
6 13 109.0
6 14 89.0
6 15 71.0
6 16 51.0
6 17 69.0
6 18 89.0
6 19 107.0
6 20 217.0
6 21 199.0
6 22 179.0
6 23 161.0
6 24 141.0
6 25 123.0
6 26 103.0
6 27 121.0
6 28 141.0
6 29 159.0
6 30 269.0
6 31 251.0
6 32 231.0
6 33 213.0
6 34 193.0
6 35 175.0
6 36 155.0
6 37 173.0
6 38 193.0
6 39 211.0
6 40 320.0
6 41 302.0
6 42 282.0
6 43 264.0
6 44 244.0
6 45 226.0
6 46 206.0
6 47 224.0
6 48 244.0
6 49 262.0
7 0 132.0
7 1 114.0
7 2 94.0
7 3 76.0
7 4 56.0
7 5 38.0
7 6 18.0
7 7 0.0
7 8 20.0
7 9 38.0
7 10 183.0
7 11 165.0
7 12 145.0
7 13 127.0
7 14 107.0
7 15 89.0
7 16 69.0
7 17 51.0
7 18 71.0
7 19 89.0
7 20 235.0
7 21 217.0
7 22 197.0
7 23 179.0
7 24 159.0
7 25 141.0
7 26 121.0
7 27 103.0
7 28 123.0
7 29 141.0
7 30 287.0
7 31 269.0
7 32 249.0
7 33 231.0
7 34 211.0
7 35 193.0
7 36 173.0
7 37 155.0
7 38 175.0
7 39 193.0
7 40 338.0
7 41 320.0
7 42 300.0
7 43 282.0
7 44 262.0
7 45 244.0
7 46 224.0
7 47 206.0
7 48 226.0
7 49 244.0
8 0 152.0
8 1 134.0
8 2 114.0
8 3 96.0
8 4 76.0
8 5 58.0
8 6 38.0
8 7 20.0
8 8 0.0
8 9 18.0
8 10 203.0
8 11 185.0
8 12 165.0
8 13 147.0
8 14 127.0
8 15 109.0
8 16 89.0
8 17 71.0
8 18 51.0
8 19 69.0
8 20 255.0
8 21 237.0
8 22 217.0
8 23 199.0
8 24 179.0
8 25 161.0
8 26 141.0
8 27 123.0
8 28 103.0
8 29 121.0
8 30 307.0
8 31 289.0
8 32 269.0
8 33 251.0
8 34 231.0
8 35 213.0
8 36 193.0
8 37 175.0
8 38 155.0
8 39 173.0
8 40 358.0
8 41 340.0
8 42 320.0
8 43 302.0
8 44 282.0
8 45 264.0
8 46 244.0
8 47 226.0
8 48 206.0
8 49 224.0
9 0 170.0
9 1 152.0
9 2 132.0
9 3 114.0
9 4 94.0
9 5 76.0
9 6 56.0
9 7 38.0
9 8 18.0
9 9 0.0
9 10 221.0
9 11 203.0
9 12 183.0
9 13 165.0
9 14 145.0
9 15 127.0
9 16 107.0
9 17 89.0
9 18 69.0
9 19 51.0
9 20 273.0
9 21 255.0
9 22 235.0
9 23 217.0
9 24 197.0
9 25 179.0
9 26 159.0
9 27 141.0
9 28 121.0
9 29 103.0
9 30 325.0
9 31 307.0
9 32 287.0
9 33 269.0
9 34 249.0
9 35 231.0
9 36 211.0
9 37 193.0
9 38 173.0
9 39 155.0
9 40 376.0
9 41 358.0
9 42 338.0
9 43 320.0
9 44 300.0
9 45 282.0
9 46 262.0
9 47 244.0
9 48 224.0
9 49 206.0
10 0 51.0
10 1 69.0
10 2 89.0
10 3 107.0
10 4 127.0
10 5 145.0
10 6 165.0
10 7 183.0
10 8 203.0
10 9 221.0
10 10 0.0
10 11 18.0
10 12 38.0
10 13 56.0
10 14 76.0
10 15 94.0
10 16 114.0
10 17 132.0
10 18 152.0
10 19 170.0
10 20 52.0
10 21 70.0
10 22 90.0
10 23 108.0
10 24 128.0
10 25 146.0
10 26 166.0
10 27 184.0
10 28 204.0
10 29 222.0
10 30 104.0
10 31 122.0
10 32 142.0
10 33 160.0
10 34 180.0
10 35 198.0
10 36 218.0
10 37 236.0
10 38 256.0
10 39 274.0
10 40 155.0
10 41 173.0
10 42 193.0
10 43 211.0
10 44 231.0
10 45 249.0
10 46 269.0
10 47 287.0
10 48 307.0
10 49 325.0
11 0 69.0
11 1 51.0
11 2 71.0
11 3 89.0
11 4 109.0
11 5 127.0
11 6 147.0
11 7 165.0
11 8 185.0
11 9 203.0
11 10 18.0
11 11 0.0
11 12 20.0
11 13 38.0
11 14 58.0
11 15 76.0
11 16 96.0
11 17 114.0
11 18 134.0
11 19 152.0
11 20 70.0
11 21 52.0
11 22 72.0
11 23 90.0
11 24 110.0
11 25 128.0
11 26 148.0
11 27 166.0
11 28 186.0
11 29 204.0
11 30 122.0
11 31 104.0
11 32 124.0
11 33 142.0
11 34 162.0
11 35 180.0
11 36 200.0
11 37 218.0
11 38 238.0
11 39 256.0
11 40 173.0
11 41 155.0
11 42 175.0
11 43 193.0
11 44 213.0
11 45 231.0
11 46 251.0
11 47 269.0
11 48 289.0
11 49 307.0
12 0 89.0
12 1 71.0
12 2 51.0
12 3 69.0
12 4 89.0
12 5 107.0
12 6 127.0
12 7 145.0
12 8 165.0
12 9 183.0
12 10 38.0
12 11 20.0
12 12 0.0
12 13 18.0
12 14 38.0
12 15 56.0
12 16 76.0
12 17 94.0
12 18 114.0
12 19 132.0
12 20 90.0
12 21 72.0
12 22 52.0
12 23 70.0
12 24 90.0
12 25 108.0
12 26 128.0
12 27 146.0
12 28 166.0
12 29 184.0
12 30 142.0
12 31 124.0
12 32 104.0
12 33 122.0
12 34 142.0
12 35 160.0
12 36 180.0
12 37 198.0
12 38 218.0
12 39 236.0
12 40 193.0
12 41 175.0
12 42 155.0
12 43 173.0
12 44 193.0
12 45 211.0
12 46 231.0
12 47 249.0
12 48 269.0
12 49 287.0
13 0 107.0
13 1 89.0
13 2 69.0
13 3 51.0
13 4 71.0
13 5 89.0
13 6 109.0
13 7 127.0
13 8 147.0
13 9 165.0
13 10 56.0
13 11 38.0
13 12 18.0
13 13 0.0
13 14 20.0
13 15 38.0
13 16 58.0
13 17 76.0
13 18 96.0
13 19 114.0
13 20 108.0
13 21 90.0
13 22 70.0
13 23 52.0
13 24 72.0
13 25 90.0
13 26 110.0
13 27 128.0
13 28 148.0
13 29 166.0
13 30 160.0
13 31 142.0
13 32 122.0
13 33 104.0
13 34 124.0
13 35 142.0
13 36 162.0
13 37 180.0
13 38 200.0
13 39 218.0
13 40 211.0
13 41 193.0
13 42 173.0
13 43 155.0
13 44 175.0
13 45 193.0
13 46 213.0
13 47 231.0
13 48 251.0
13 49 269.0
14 0 127.0
14 1 109.0
14 2 89.0
14 3 71.0
14 4 51.0
14 5 69.0
14 6 89.0
14 7 107.0
14 8 127.0
14 9 145.0
14 10 76.0
14 11 58.0
14 12 38.0
14 13 20.0
14 14 0.0
14 15 18.0
14 16 38.0
14 17 56.0
14 18 76.0
14 19 94.0
14 20 128.0
14 21 110.0
14 22 90.0
14 23 72.0
14 24 52.0
14 25 70.0
14 26 90.0
14 27 108.0
14 28 128.0
14 29 146.0
14 30 180.0
14 31 162.0
14 32 142.0
14 33 124.0
14 34 104.0
14 35 122.0
14 36 142.0
14 37 160.0
14 38 180.0
14 39 198.0
14 40 231.0
14 41 213.0
14 42 193.0
14 43 175.0
14 44 155.0
14 45 173.0
14 46 193.0
14 47 211.0
14 48 231.0
14 49 249.0
15 0 145.0
15 1 127.0
15 2 107.0
15 3 89.0
15 4 69.0
15 5 51.0
15 6 71.0
15 7 89.0
15 8 109.0
15 9 127.0
15 10 94.0
15 11 76.0
15 12 56.0
15 13 38.0
15 14 18.0
15 15 0.0
15 16 20.0
15 17 38.0
15 18 58.0
15 19 76.0
15 20 146.0
15 21 128.0
15 22 108.0
15 23 90.0
15 24 70.0
15 25 52.0
15 26 72.0
15 27 90.0
15 28 110.0
15 29 128.0
15 30 198.0
15 31 180.0
15 32 160.0
15 33 142.0
15 34 122.0
15 35 104.0
15 36 124.0
15 37 142.0
15 38 162.0
15 39 180.0
15 40 249.0
15 41 231.0
15 42 211.0
15 43 193.0
15 44 173.0
15 45 155.0
15 46 175.0
15 47 193.0
15 48 213.0
15 49 231.0
16 0 165.0
16 1 147.0
16 2 127.0
16 3 109.0
16 4 89.0
16 5 71.0
16 6 51.0
16 7 69.0
16 8 89.0
16 9 107.0
16 10 114.0
16 11 96.0
16 12 76.0
16 13 58.0
16 14 38.0
16 15 20.0
16 16 0.0
16 17 18.0
16 18 38.0
16 19 56.0
16 20 166.0
16 21 148.0
16 22 128.0
16 23 110.0
16 24 90.0
16 25 72.0
16 26 52.0
16 27 70.0
16 28 90.0
16 29 108.0
16 30 218.0
16 31 200.0
16 32 180.0
16 33 162.0
16 34 142.0
16 35 124.0
16 36 104.0
16 37 122.0
16 38 142.0
16 39 160.0
16 40 269.0
16 41 251.0
16 42 231.0
16 43 213.0
16 44 193.0
16 45 175.0
16 46 155.0
16 47 173.0
16 48 193.0
16 49 211.0
17 0 183.0
17 1 165.0
17 2 145.0
17 3 127.0
17 4 107.0
17 5 89.0
17 6 69.0
17 7 51.0
17 8 71.0
17 9 89.0
17 10 132.0
17 11 114.0
17 12 94.0
17 13 76.0
17 14 56.0
17 15 38.0
17 16 18.0
17 17 0.0
17 18 20.0
17 19 38.0
17 20 184.0
17 21 166.0
17 22 146.0
17 23 128.0
17 24 108.0
17 25 90.0
17 26 70.0
17 27 52.0
17 28 72.0
17 29 90.0
17 30 236.0
17 31 218.0
17 32 198.0
17 33 180.0
17 34 160.0
17 35 142.0
17 36 122.0
17 37 104.0
17 38 124.0
17 39 142.0
17 40 287.0
17 41 269.0
17 42 249.0
17 43 231.0
17 44 211.0
17 45 193.0
17 46 173.0
17 47 155.0
17 48 175.0
17 49 193.0
18 0 203.0
18 1 185.0
18 2 165.0
18 3 147.0
18 4 127.0
18 5 109.0
18 6 89.0
18 7 71.0
18 8 51.0
18 9 69.0
18 10 152.0
18 11 134.0
18 12 114.0
18 13 96.0
18 14 76.0
18 15 58.0
18 16 38.0
18 17 20.0
18 18 0.0
18 19 18.0
18 20 204.0
18 21 186.0
18 22 166.0
18 23 148.0
18 24 128.0
18 25 110.0
18 26 90.0
18 27 72.0
18 28 52.0
18 29 70.0
18 30 256.0
18 31 238.0
18 32 218.0
18 33 200.0
18 34 180.0
18 35 162.0
18 36 142.0
18 37 124.0
18 38 104.0
18 39 122.0
18 40 307.0
18 41 289.0
18 42 269.0
18 43 251.0
18 44 231.0
18 45 213.0
18 46 193.0
18 47 175.0
18 48 155.0
18 49 173.0
19 0 221.0
19 1 203.0
19 2 183.0
19 3 165.0
19 4 145.0
19 5 127.0
19 6 107.0
19 7 89.0
19 8 69.0
19 9 51.0
19 10 170.0
19 11 152.0
19 12 132.0
19 13 114.0
19 14 94.0
19 15 76.0
19 16 56.0
19 17 38.0
19 18 18.0
19 19 0.0
19 20 222.0
19 21 204.0
19 22 184.0
19 23 166.0
19 24 146.0
19 25 128.0
19 26 108.0
19 27 90.0
19 28 70.0
19 29 52.0
19 30 274.0
19 31 256.0
19 32 236.0
19 33 218.0
19 34 198.0
19 35 180.0
19 36 160.0
19 37 142.0
19 38 122.0
19 39 104.0
19 40 325.0
19 41 307.0
19 42 287.0
19 43 269.0
19 44 249.0
19 45 231.0
19 46 211.0
19 47 193.0
19 48 173.0
19 49 155.0
20 0 103.0
20 1 121.0
20 2 141.0
20 3 159.0
20 4 179.0
20 5 197.0
20 6 217.0
20 7 235.0
20 8 255.0
20 9 273.0
20 10 52.0
20 11 70.0
20 12 90.0
20 13 108.0
20 14 128.0
20 15 146.0
20 16 166.0
20 17 184.0
20 18 204.0
20 19 222.0
20 20 0.0
20 21 18.0
20 22 38.0
20 23 56.0
20 24 76.0
20 25 94.0
20 26 114.0
20 27 132.0
20 28 152.0
20 29 170.0
20 30 52.0
20 31 70.0
20 32 90.0
20 33 108.0
20 34 128.0
20 35 146.0
20 36 166.0
20 37 184.0
20 38 204.0
20 39 222.0
20 40 103.0
20 41 121.0
20 42 141.0
20 43 159.0
20 44 179.0
20 45 197.0
20 46 217.0
20 47 235.0
20 48 255.0
20 49 273.0
21 0 121.0
21 1 103.0
21 2 123.0
21 3 141.0
21 4 161.0
21 5 179.0
21 6 199.0
21 7 217.0
21 8 237.0
21 9 255.0
21 10 70.0
21 11 52.0
21 12 72.0
21 13 90.0
21 14 110.0
21 15 128.0
21 16 148.0
21 17 166.0
21 18 186.0
21 19 204.0
21 20 18.0
21 21 0.0
21 22 20.0
21 23 38.0
21 24 58.0
21 25 76.0
21 26 96.0
21 27 114.0
21 28 134.0
21 29 152.0
21 30 70.0
21 31 52.0
21 32 72.0
21 33 90.0
21 34 110.0
21 35 128.0
21 36 148.0
21 37 166.0
21 38 186.0
21 39 204.0
21 40 121.0
21 41 103.0
21 42 123.0
21 43 141.0
21 44 161.0
21 45 179.0
21 46 199.0
21 47 217.0
21 48 237.0
21 49 255.0
22 0 141.0
22 1 123.0
22 2 103.0
22 3 121.0
22 4 141.0
22 5 159.0
22 6 179.0
22 7 197.0
22 8 217.0
22 9 235.0
22 10 90.0
22 11 72.0
22 12 52.0
22 13 70.0
22 14 90.0
22 15 108.0
22 16 128.0
22 17 146.0
22 18 166.0
22 19 184.0
22 20 38.0
22 21 20.0
22 22 0.0
22 23 18.0
22 24 38.0
22 25 56.0
22 26 76.0
22 27 94.0
22 28 114.0
22 29 132.0
22 30 90.0
22 31 72.0
22 32 52.0
22 33 70.0
22 34 90.0
22 35 108.0
22 36 128.0
22 37 146.0
22 38 166.0
22 39 184.0
22 40 141.0
22 41 123.0
22 42 103.0
22 43 121.0
22 44 141.0
22 45 159.0
22 46 179.0
22 47 197.0
22 48 217.0
22 49 235.0
23 0 159.0
23 1 141.0
23 2 121.0
23 3 103.0
23 4 123.0
23 5 141.0
23 6 161.0
23 7 179.0
23 8 199.0
23 9 217.0
23 10 108.0
23 11 90.0
23 12 70.0
23 13 52.0
23 14 72.0
23 15 90.0
23 16 110.0
23 17 128.0
23 18 148.0
23 19 166.0
23 20 56.0
23 21 38.0
23 22 18.0
23 23 0.0
23 24 20.0
23 25 38.0
23 26 58.0
23 27 76.0
23 28 96.0
23 29 114.0
23 30 108.0
23 31 90.0
23 32 70.0
23 33 52.0
23 34 72.0
23 35 90.0
23 36 110.0
23 37 128.0
23 38 148.0
23 39 166.0
23 40 159.0
23 41 141.0
23 42 121.0
23 43 103.0
23 44 123.0
23 45 141.0
23 46 161.0
23 47 179.0
23 48 199.0
23 49 217.0
24 0 179.0
24 1 161.0
24 2 141.0
24 3 123.0
24 4 103.0
24 5 121.0
24 6 141.0
24 7 159.0
24 8 179.0
24 9 197.0
24 10 128.0
24 11 110.0
24 12 90.0
24 13 72.0
24 14 52.0
24 15 70.0
24 16 90.0
24 17 108.0
24 18 128.0
24 19 146.0
24 20 76.0
24 21 58.0
24 22 38.0
24 23 20.0
24 24 0.0
24 25 18.0
24 26 38.0
24 27 56.0
24 28 76.0
24 29 94.0
24 30 128.0
24 31 110.0
24 32 90.0
24 33 72.0
24 34 52.0
24 35 70.0
24 36 90.0
24 37 108.0
24 38 128.0
24 39 146.0
24 40 179.0
24 41 161.0
24 42 141.0
24 43 123.0
24 44 103.0
24 45 121.0
24 46 141.0
24 47 159.0
24 48 179.0
24 49 197.0
25 0 197.0
25 1 179.0
25 2 159.0
25 3 141.0
25 4 121.0
25 5 103.0
25 6 123.0
25 7 141.0
25 8 161.0
25 9 179.0
25 10 146.0
25 11 128.0
25 12 108.0
25 13 90.0
25 14 70.0
25 15 52.0
25 16 72.0
25 17 90.0
25 18 110.0
25 19 128.0
25 20 94.0
25 21 76.0
25 22 56.0
25 23 38.0
25 24 18.0
25 25 0.0
25 26 20.0
25 27 38.0
25 28 58.0
25 29 76.0
25 30 146.0
25 31 128.0
25 32 108.0
25 33 90.0
25 34 70.0
25 35 52.0
25 36 72.0
25 37 90.0
25 38 110.0
25 39 128.0
25 40 197.0
25 41 179.0
25 42 159.0
25 43 141.0
25 44 121.0
25 45 103.0
25 46 123.0
25 47 141.0
25 48 161.0
25 49 179.0
26 0 217.0
26 1 199.0
26 2 179.0
26 3 161.0
26 4 141.0
26 5 123.0
26 6 103.0
26 7 121.0
26 8 141.0
26 9 159.0
26 10 166.0
26 11 148.0
26 12 128.0
26 13 110.0
26 14 90.0
26 15 72.0
26 16 52.0
26 17 70.0
26 18 90.0
26 19 108.0
26 20 114.0
26 21 96.0
26 22 76.0
26 23 58.0
26 24 38.0
26 25 20.0
26 26 0.0
26 27 18.0
26 28 38.0
26 29 56.0
26 30 166.0
26 31 148.0
26 32 128.0
26 33 110.0
26 34 90.0
26 35 72.0
26 36 52.0
26 37 70.0
26 38 90.0
26 39 108.0
26 40 217.0
26 41 199.0
26 42 179.0
26 43 161.0
26 44 141.0
26 45 123.0
26 46 103.0
26 47 121.0
26 48 141.0
26 49 159.0
27 0 235.0
27 1 217.0
27 2 197.0
27 3 179.0
27 4 159.0
27 5 141.0
27 6 121.0
27 7 103.0
27 8 123.0
27 9 141.0
27 10 184.0
27 11 166.0
27 12 146.0
27 13 128.0
27 14 108.0
27 15 90.0
27 16 70.0
27 17 52.0
27 18 72.0
27 19 90.0
27 20 132.0
27 21 114.0
27 22 94.0
27 23 76.0
27 24 56.0
27 25 38.0
27 26 18.0
27 27 0.0
27 28 20.0
27 29 38.0
27 30 184.0
27 31 166.0
27 32 146.0
27 33 128.0
27 34 108.0
27 35 90.0
27 36 70.0
27 37 52.0
27 38 72.0
27 39 90.0
27 40 235.0
27 41 217.0
27 42 197.0
27 43 179.0
27 44 159.0
27 45 141.0
27 46 121.0
27 47 103.0
27 48 123.0
27 49 141.0
28 0 255.0
28 1 237.0
28 2 217.0
28 3 199.0
28 4 179.0
28 5 161.0
28 6 141.0
28 7 123.0
28 8 103.0
28 9 121.0
28 10 204.0
28 11 186.0
28 12 166.0
28 13 148.0
28 14 128.0
28 15 110.0
28 16 90.0
28 17 72.0
28 18 52.0
28 19 70.0
28 20 152.0
28 21 134.0
28 22 114.0
28 23 96.0
28 24 76.0
28 25 58.0
28 26 38.0
28 27 20.0
28 28 0.0
28 29 18.0
28 30 204.0
28 31 186.0
28 32 166.0
28 33 148.0
28 34 128.0
28 35 110.0
28 36 90.0
28 37 72.0
28 38 52.0
28 39 70.0
28 40 255.0
28 41 237.0
28 42 217.0
28 43 199.0
28 44 179.0
28 45 161.0
28 46 141.0
28 47 123.0
28 48 103.0
28 49 121.0
29 0 273.0
29 1 255.0
29 2 235.0
29 3 217.0
29 4 197.0
29 5 179.0
29 6 159.0
29 7 141.0
29 8 121.0
29 9 103.0
29 10 222.0
29 11 204.0
29 12 184.0
29 13 166.0
29 14 146.0
29 15 128.0
29 16 108.0
29 17 90.0
29 18 70.0
29 19 52.0
29 20 170.0
29 21 152.0
29 22 132.0
29 23 114.0
29 24 94.0
29 25 76.0
29 26 56.0
29 27 38.0
29 28 18.0
29 29 0.0
29 30 222.0
29 31 204.0
29 32 184.0
29 33 166.0
29 34 146.0
29 35 128.0
29 36 108.0
29 37 90.0
29 38 70.0
29 39 52.0
29 40 273.0
29 41 255.0
29 42 235.0
29 43 217.0
29 44 197.0
29 45 179.0
29 46 159.0
29 47 141.0
29 48 121.0
29 49 103.0
30 0 155.0
30 1 173.0
30 2 193.0
30 3 211.0
30 4 231.0
30 5 249.0
30 6 269.0
30 7 287.0
30 8 307.0
30 9 325.0
30 10 104.0
30 11 122.0
30 12 142.0
30 13 160.0
30 14 180.0
30 15 198.0
30 16 218.0
30 17 236.0
30 18 256.0
30 19 274.0
30 20 52.0
30 21 70.0
30 22 90.0
30 23 108.0
30 24 128.0
30 25 146.0
30 26 166.0
30 27 184.0
30 28 204.0
30 29 222.0
30 30 0.0
30 31 18.0
30 32 38.0
30 33 56.0
30 34 76.0
30 35 94.0
30 36 114.0
30 37 132.0
30 38 152.0
30 39 170.0
30 40 51.0
30 41 69.0
30 42 89.0
30 43 107.0
30 44 127.0
30 45 145.0
30 46 165.0
30 47 183.0
30 48 203.0
30 49 221.0
31 0 173.0
31 1 155.0
31 2 175.0
31 3 193.0
31 4 213.0
31 5 231.0
31 6 251.0
31 7 269.0
31 8 289.0
31 9 307.0
31 10 122.0
31 11 104.0
31 12 124.0
31 13 142.0
31 14 162.0
31 15 180.0
31 16 200.0
31 17 218.0
31 18 238.0
31 19 256.0
31 20 70.0
31 21 52.0
31 22 72.0
31 23 90.0
31 24 110.0
31 25 128.0
31 26 148.0
31 27 166.0
31 28 186.0
31 29 204.0
31 30 18.0
31 31 0.0
31 32 20.0
31 33 38.0
31 34 58.0
31 35 76.0
31 36 96.0
31 37 114.0
31 38 134.0
31 39 152.0
31 40 69.0
31 41 51.0
31 42 71.0
31 43 89.0
31 44 109.0
31 45 127.0
31 46 147.0
31 47 165.0
31 48 185.0
31 49 203.0
32 0 193.0
32 1 175.0
32 2 155.0
32 3 173.0
32 4 193.0
32 5 211.0
32 6 231.0
32 7 249.0
32 8 269.0
32 9 287.0
32 10 142.0
32 11 124.0
32 12 104.0
32 13 122.0
32 14 142.0
32 15 160.0
32 16 180.0
32 17 198.0
32 18 218.0
32 19 236.0
32 20 90.0
32 21 72.0
32 22 52.0
32 23 70.0
32 24 90.0
32 25 108.0
32 26 128.0
32 27 146.0
32 28 166.0
32 29 184.0
32 30 38.0
32 31 20.0
32 32 0.0
32 33 18.0
32 34 38.0
32 35 56.0
32 36 76.0
32 37 94.0
32 38 114.0
32 39 132.0
32 40 89.0
32 41 71.0
32 42 51.0
32 43 69.0
32 44 89.0
32 45 107.0
32 46 127.0
32 47 145.0
32 48 165.0
32 49 183.0
33 0 211.0
33 1 193.0
33 2 173.0
33 3 155.0
33 4 175.0
33 5 193.0
33 6 213.0
33 7 231.0
33 8 251.0
33 9 269.0
33 10 160.0
33 11 142.0
33 12 122.0
33 13 104.0
33 14 124.0
33 15 142.0
33 16 162.0
33 17 180.0
33 18 200.0
33 19 218.0
33 20 108.0
33 21 90.0
33 22 70.0
33 23 52.0
33 24 72.0
33 25 90.0
33 26 110.0
33 27 128.0
33 28 148.0
33 29 166.0
33 30 56.0
33 31 38.0
33 32 18.0
33 33 0.0
33 34 20.0
33 35 38.0
33 36 58.0
33 37 76.0
33 38 96.0
33 39 114.0
33 40 107.0
33 41 89.0
33 42 69.0
33 43 51.0
33 44 71.0
33 45 89.0
33 46 109.0
33 47 127.0
33 48 147.0
33 49 165.0
34 0 231.0
34 1 213.0
34 2 193.0
34 3 175.0
34 4 155.0
34 5 173.0
34 6 193.0
34 7 211.0
34 8 231.0
34 9 249.0
34 10 180.0
34 11 162.0
34 12 142.0
34 13 124.0
34 14 104.0
34 15 122.0
34 16 142.0
34 17 160.0
34 18 180.0
34 19 198.0
34 20 128.0
34 21 110.0
34 22 90.0
34 23 72.0
34 24 52.0
34 25 70.0
34 26 90.0
34 27 108.0
34 28 128.0
34 29 146.0
34 30 76.0
34 31 58.0
34 32 38.0
34 33 20.0
34 34 0.0
34 35 18.0
34 36 38.0
34 37 56.0
34 38 76.0
34 39 94.0
34 40 127.0
34 41 109.0
34 42 89.0
34 43 71.0
34 44 51.0
34 45 69.0
34 46 89.0
34 47 107.0
34 48 127.0
34 49 145.0
35 0 249.0
35 1 231.0
35 2 211.0
35 3 193.0
35 4 173.0
35 5 155.0
35 6 175.0
35 7 193.0
35 8 213.0
35 9 231.0
35 10 198.0
35 11 180.0
35 12 160.0
35 13 142.0
35 14 122.0
35 15 104.0
35 16 124.0
35 17 142.0
35 18 162.0
35 19 180.0
35 20 146.0
35 21 128.0
35 22 108.0
35 23 90.0
35 24 70.0
35 25 52.0
35 26 72.0
35 27 90.0
35 28 110.0
35 29 128.0
35 30 94.0
35 31 76.0
35 32 56.0
35 33 38.0
35 34 18.0
35 35 0.0
35 36 20.0
35 37 38.0
35 38 58.0
35 39 76.0
35 40 145.0
35 41 127.0
35 42 107.0
35 43 89.0
35 44 69.0
35 45 51.0
35 46 71.0
35 47 89.0
35 48 109.0
35 49 127.0
36 0 269.0
36 1 251.0
36 2 231.0
36 3 213.0
36 4 193.0
36 5 175.0
36 6 155.0
36 7 173.0
36 8 193.0
36 9 211.0
36 10 218.0
36 11 200.0
36 12 180.0
36 13 162.0
36 14 142.0
36 15 124.0
36 16 104.0
36 17 122.0
36 18 142.0
36 19 160.0
36 20 166.0
36 21 148.0
36 22 128.0
36 23 110.0
36 24 90.0
36 25 72.0
36 26 52.0
36 27 70.0
36 28 90.0
36 29 108.0
36 30 114.0
36 31 96.0
36 32 76.0
36 33 58.0
36 34 38.0
36 35 20.0
36 36 0.0
36 37 18.0
36 38 38.0
36 39 56.0
36 40 165.0
36 41 147.0
36 42 127.0
36 43 109.0
36 44 89.0
36 45 71.0
36 46 51.0
36 47 69.0
36 48 89.0
36 49 107.0
37 0 287.0
37 1 269.0
37 2 249.0
37 3 231.0
37 4 211.0
37 5 193.0
37 6 173.0
37 7 155.0
37 8 175.0
37 9 193.0
37 10 236.0
37 11 218.0
37 12 198.0
37 13 180.0
37 14 160.0
37 15 142.0
37 16 122.0
37 17 104.0
37 18 124.0
37 19 142.0
37 20 184.0
37 21 166.0
37 22 146.0
37 23 128.0
37 24 108.0
37 25 90.0
37 26 70.0
37 27 52.0
37 28 72.0
37 29 90.0
37 30 132.0
37 31 114.0
37 32 94.0
37 33 76.0
37 34 56.0
37 35 38.0
37 36 18.0
37 37 0.0
37 38 20.0
37 39 38.0
37 40 183.0
37 41 165.0
37 42 145.0
37 43 127.0
37 44 107.0
37 45 89.0
37 46 69.0
37 47 51.0
37 48 71.0
37 49 89.0
38 0 307.0
38 1 289.0
38 2 269.0
38 3 251.0
38 4 231.0
38 5 213.0
38 6 193.0
38 7 175.0
38 8 155.0
38 9 173.0
38 10 256.0
38 11 238.0
38 12 218.0
38 13 200.0
38 14 180.0
38 15 162.0
38 16 142.0
38 17 124.0
38 18 104.0
38 19 122.0
38 20 204.0
38 21 186.0
38 22 166.0
38 23 148.0
38 24 128.0
38 25 110.0
38 26 90.0
38 27 72.0
38 28 52.0
38 29 70.0
38 30 152.0
38 31 134.0
38 32 114.0
38 33 96.0
38 34 76.0
38 35 58.0
38 36 38.0
38 37 20.0
38 38 0.0
38 39 18.0
38 40 203.0
38 41 185.0
38 42 165.0
38 43 147.0
38 44 127.0
38 45 109.0
38 46 89.0
38 47 71.0
38 48 51.0
38 49 69.0
39 0 325.0
39 1 307.0
39 2 287.0
39 3 269.0
39 4 249.0
39 5 231.0
39 6 211.0
39 7 193.0
39 8 173.0
39 9 155.0
39 10 274.0
39 11 256.0
39 12 236.0
39 13 218.0
39 14 198.0
39 15 180.0
39 16 160.0
39 17 142.0
39 18 122.0
39 19 104.0
39 20 222.0
39 21 204.0
39 22 184.0
39 23 166.0
39 24 146.0
39 25 128.0
39 26 108.0
39 27 90.0
39 28 70.0
39 29 52.0
39 30 170.0
39 31 152.0
39 32 132.0
39 33 114.0
39 34 94.0
39 35 76.0
39 36 56.0
39 37 38.0
39 38 18.0
39 39 0.0
39 40 221.0
39 41 203.0
39 42 183.0
39 43 165.0
39 44 145.0
39 45 127.0
39 46 107.0
39 47 89.0
39 48 69.0
39 49 51.0
40 0 206.0
40 1 224.0
40 2 244.0
40 3 262.0
40 4 282.0
40 5 300.0
40 6 320.0
40 7 338.0
40 8 358.0
40 9 376.0
40 10 155.0
40 11 173.0
40 12 193.0
40 13 211.0
40 14 231.0
40 15 249.0
40 16 269.0
40 17 287.0
40 18 307.0
40 19 325.0
40 20 103.0
40 21 121.0
40 22 141.0
40 23 159.0
40 24 179.0
40 25 197.0
40 26 217.0
40 27 235.0
40 28 255.0
40 29 273.0
40 30 51.0
40 31 69.0
40 32 89.0
40 33 107.0
40 34 127.0
40 35 145.0
40 36 165.0
40 37 183.0
40 38 203.0
40 39 221.0
40 40 0.0
40 41 18.0
40 42 38.0
40 43 56.0
40 44 76.0
40 45 94.0
40 46 114.0
40 47 132.0
40 48 152.0
40 49 170.0
41 0 224.0
41 1 206.0
41 2 226.0
41 3 244.0
41 4 264.0
41 5 282.0
41 6 302.0
41 7 320.0
41 8 340.0
41 9 358.0
41 10 173.0
41 11 155.0
41 12 175.0
41 13 193.0
41 14 213.0
41 15 231.0
41 16 251.0
41 17 269.0
41 18 289.0
41 19 307.0
41 20 121.0
41 21 103.0
41 22 123.0
41 23 141.0
41 24 161.0
41 25 179.0
41 26 199.0
41 27 217.0
41 28 237.0
41 29 255.0
41 30 69.0
41 31 51.0
41 32 71.0
41 33 89.0
41 34 109.0
41 35 127.0
41 36 147.0
41 37 165.0
41 38 185.0
41 39 203.0
41 40 18.0
41 41 0.0
41 42 20.0
41 43 38.0
41 44 58.0
41 45 76.0
41 46 96.0
41 47 114.0
41 48 134.0
41 49 152.0
42 0 244.0
42 1 226.0
42 2 206.0
42 3 224.0
42 4 244.0
42 5 262.0
42 6 282.0
42 7 300.0
42 8 320.0
42 9 338.0
42 10 193.0
42 11 175.0
42 12 155.0
42 13 173.0
42 14 193.0
42 15 211.0
42 16 231.0
42 17 249.0
42 18 269.0
42 19 287.0
42 20 141.0
42 21 123.0
42 22 103.0
42 23 121.0
42 24 141.0
42 25 159.0
42 26 179.0
42 27 197.0
42 28 217.0
42 29 235.0
42 30 89.0
42 31 71.0
42 32 51.0
42 33 69.0
42 34 89.0
42 35 107.0
42 36 127.0
42 37 145.0
42 38 165.0
42 39 183.0
42 40 38.0
42 41 20.0
42 42 0.0
42 43 18.0
42 44 38.0
42 45 56.0
42 46 76.0
42 47 94.0
42 48 114.0
42 49 132.0
43 0 262.0
43 1 244.0
43 2 224.0
43 3 206.0
43 4 226.0
43 5 244.0
43 6 264.0
43 7 282.0
43 8 302.0
43 9 320.0
43 10 211.0
43 11 193.0
43 12 173.0
43 13 155.0
43 14 175.0
43 15 193.0
43 16 213.0
43 17 231.0
43 18 251.0
43 19 269.0
43 20 159.0
43 21 141.0
43 22 121.0
43 23 103.0
43 24 123.0
43 25 141.0
43 26 161.0
43 27 179.0
43 28 199.0
43 29 217.0
43 30 107.0
43 31 89.0
43 32 69.0
43 33 51.0
43 34 71.0
43 35 89.0
43 36 109.0
43 37 127.0
43 38 147.0
43 39 165.0
43 40 56.0
43 41 38.0
43 42 18.0
43 43 0.0
43 44 20.0
43 45 38.0
43 46 58.0
43 47 76.0
43 48 96.0
43 49 114.0
44 0 282.0
44 1 264.0
44 2 244.0
44 3 226.0
44 4 206.0
44 5 224.0
44 6 244.0
44 7 262.0
44 8 282.0
44 9 300.0
44 10 231.0
44 11 213.0
44 12 193.0
44 13 175.0
44 14 155.0
44 15 173.0
44 16 193.0
44 17 211.0
44 18 231.0
44 19 249.0
44 20 179.0
44 21 161.0
44 22 141.0
44 23 123.0
44 24 103.0
44 25 121.0
44 26 141.0
44 27 159.0
44 28 179.0
44 29 197.0
44 30 127.0
44 31 109.0
44 32 89.0
44 33 71.0
44 34 51.0
44 35 69.0
44 36 89.0
44 37 107.0
44 38 127.0
44 39 145.0
44 40 76.0
44 41 58.0
44 42 38.0
44 43 20.0
44 44 0.0
44 45 18.0
44 46 38.0
44 47 56.0
44 48 76.0
44 49 94.0
45 0 300.0
45 1 282.0
45 2 262.0
45 3 244.0
45 4 224.0
45 5 206.0
45 6 226.0
45 7 244.0
45 8 264.0
45 9 282.0
45 10 249.0
45 11 231.0
45 12 211.0
45 13 193.0
45 14 173.0
45 15 155.0
45 16 175.0
45 17 193.0
45 18 213.0
45 19 231.0
45 20 197.0
45 21 179.0
45 22 159.0
45 23 141.0
45 24 121.0
45 25 103.0
45 26 123.0
45 27 141.0
45 28 161.0
45 29 179.0
45 30 145.0
45 31 127.0
45 32 107.0
45 33 89.0
45 34 69.0
45 35 51.0
45 36 71.0
45 37 89.0
45 38 109.0
45 39 127.0
45 40 94.0
45 41 76.0
45 42 56.0
45 43 38.0
45 44 18.0
45 45 0.0
45 46 20.0
45 47 38.0
45 48 58.0
45 49 76.0
46 0 320.0
46 1 302.0
46 2 282.0
46 3 264.0
46 4 244.0
46 5 226.0
46 6 206.0
46 7 224.0
46 8 244.0
46 9 262.0
46 10 269.0
46 11 251.0
46 12 231.0
46 13 213.0
46 14 193.0
46 15 175.0
46 16 155.0
46 17 173.0
46 18 193.0
46 19 211.0
46 20 217.0
46 21 199.0
46 22 179.0
46 23 161.0
46 24 141.0
46 25 123.0
46 26 103.0
46 27 121.0
46 28 141.0
46 29 159.0
46 30 165.0
46 31 147.0
46 32 127.0
46 33 109.0
46 34 89.0
46 35 71.0
46 36 51.0
46 37 69.0
46 38 89.0
46 39 107.0
46 40 114.0
46 41 96.0
46 42 76.0
46 43 58.0
46 44 38.0
46 45 20.0
46 46 0.0
46 47 18.0
46 48 38.0
46 49 56.0
47 0 338.0
47 1 320.0
47 2 300.0
47 3 282.0
47 4 262.0
47 5 244.0
47 6 224.0
47 7 206.0
47 8 226.0
47 9 244.0
47 10 287.0
47 11 269.0
47 12 249.0
47 13 231.0
47 14 211.0
47 15 193.0
47 16 173.0
47 17 155.0
47 18 175.0
47 19 193.0
47 20 235.0
47 21 217.0
47 22 197.0
47 23 179.0
47 24 159.0
47 25 141.0
47 26 121.0
47 27 103.0
47 28 123.0
47 29 141.0
47 30 183.0
47 31 165.0
47 32 145.0
47 33 127.0
47 34 107.0
47 35 89.0
47 36 69.0
47 37 51.0
47 38 71.0
47 39 89.0
47 40 132.0
47 41 114.0
47 42 94.0
47 43 76.0
47 44 56.0
47 45 38.0
47 46 18.0
47 47 0.0
47 48 20.0
47 49 38.0
48 0 358.0
48 1 340.0
48 2 320.0
48 3 302.0
48 4 282.0
48 5 264.0
48 6 244.0
48 7 226.0
48 8 206.0
48 9 224.0
48 10 307.0
48 11 289.0
48 12 269.0
48 13 251.0
48 14 231.0
48 15 213.0
48 16 193.0
48 17 175.0
48 18 155.0
48 19 173.0
48 20 255.0
48 21 237.0
48 22 217.0
48 23 199.0
48 24 179.0
48 25 161.0
48 26 141.0
48 27 123.0
48 28 103.0
48 29 121.0
48 30 203.0
48 31 185.0
48 32 165.0
48 33 147.0
48 34 127.0
48 35 109.0
48 36 89.0
48 37 71.0
48 38 51.0
48 39 69.0
48 40 152.0
48 41 134.0
48 42 114.0
48 43 96.0
48 44 76.0
48 45 58.0
48 46 38.0
48 47 20.0
48 48 0.0
48 49 18.0
49 0 376.0
49 1 358.0
49 2 338.0
49 3 320.0
49 4 300.0
49 5 282.0
49 6 262.0
49 7 244.0
49 8 224.0
49 9 206.0
49 10 325.0
49 11 307.0
49 12 287.0
49 13 269.0
49 14 249.0
49 15 231.0
49 16 211.0
49 17 193.0
49 18 173.0
49 19 155.0
49 20 273.0
49 21 255.0
49 22 235.0
49 23 217.0
49 24 197.0
49 25 179.0
49 26 159.0
49 27 141.0
49 28 121.0
49 29 103.0
49 30 221.0
49 31 203.0
49 32 183.0
49 33 165.0
49 34 145.0
49 35 127.0
49 36 107.0
49 37 89.0
49 38 69.0
49 39 51.0
49 40 170.0
49 41 152.0
49 42 132.0
49 43 114.0
49 44 94.0
49 45 76.0
49 46 56.0
49 47 38.0
49 48 18.0
49 49 0.0
